RobustCbss/GLKH-1.1/TMP/mEgtspf.pid7377.atsp
NAME : mEgtspf.pid7377.gtsp
TYPE : ATSP
DIMENSION : 67
EDGE_WEIGHT_TYPE : EXPLICIT
EDGE_WEIGHT_FORMAT : FULL_MATRIX
EDGE_WEIGHT_SECTION
999999 5368709 5368709 5368738 5368739 5368740 5368739 5368745 5368746 5368745 5368744 5368726 5368727 5368726 5368725 5368742 5368743 5368744 5368743 5368730 5368731 5368732 5368731 5368729 5368730 5368729 5368728 5368724 5368725 5368724 5368723 5368723 5368724 5368725 5368724 5368721 5368722 5368721 5368720 5368736 5368737 5368736 5368735 5368747 5368748 5368749 5368748 5368726 5368725 5368724 5368725 5368720 5368719 5368718 5368719 5368730 5368731 5368732 5368731 5368727 5368728 5368727 5368726 5368728 5368729 5368730 5368729 
5368709 999999 5368709 5368747 5368746 5368747 5368748 5368750 5368751 5368750 5368749 5368729 5368730 5368731 5368730 5368751 5368750 5368751 5368752 5368739 5368738 5368739 5368740 5368734 5368735 5368734 5368733 5368725 5368726 5368725 5368724 5368732 5368731 5368732 5368733 5368714 5368713 5368712 5368713 5368741 5368742 5368741 5368740 5368756 5368755 5368756 5368757 5368721 5368720 5368719 5368720 5368715 5368714 5368715 5368716 5368739 5368738 5368739 5368740 5368720 5368721 5368720 5368719 5368737 5368736 5368737 5368738 
5368709 5368709 999999 5368732 5368733 5368734 5368733 5368747 5368748 5368749 5368748 5368728 5368729 5368730 5368729 5368736 5368737 5368738 5368737 5368726 5368727 5368728 5368727 5368731 5368732 5368733 5368732 5368730 5368731 5368730 5368729 5368721 5368722 5368723 5368722 5368727 5368728 5368727 5368726 5368738 5368739 5368740 5368739 5368741 5368742 5368743 5368742 5368722 5368721 5368722 5368723 5368722 5368723 5368722 5368721 5368728 5368729 5368730 5368729 5368733 5368734 5368733 5368732 5368724 5368723 5368724 5368725 
5368709 5368709 5368709 999999 0 10737418 10737418 5368749 5368750 5368749 5368748 5368730 5368731 5368730 5368729 5368730 5368731 5368730 5368729 5368728 5368729 5368728 5368727 5368749 5368750 5368749 5368748 5368752 5368753 5368752 5368751 5368727 5368728 5368727 5368726 5368749 5368750 5368749 5368748 5368740 5368741 5368740 5368739 5368719 5368720 5368721 5368720 5368742 5368743 5368742 5368741 5368744 5368745 5368744 5368743 5368730 5368731 5368730 5368729 5368755 5368756 5368755 5368754 5368724 5368723 5368722 5368723 
5368709 5368709 5368709 10737418 999999 0 10737418 5368748 5368749 5368750 5368749 5368729 5368730 5368731 5368730 5368729 5368730 5368731 5368730 5368727 5368728 5368729 5368728 5368748 5368749 5368748 5368747 5368751 5368752 5368751 5368750 5368726 5368727 5368726 5368725 5368748 5368749 5368748 5368747 5368739 5368740 5368741 5368740 5368720 5368721 5368722 5368721 5368741 5368742 5368741 5368740 5368743 5368744 5368743 5368742 5368729 5368730 5368731 5368730 5368754 5368755 5368754 5368753 5368723 5368722 5368723 5368724 
5368709 5368709 5368709 10737418 10737418 999999 0 5368747 5368748 5368749 5368748 5368728 5368729 5368730 5368729 5368728 5368729 5368730 5368729 5368726 5368727 5368728 5368727 5368749 5368748 5368747 5368748 5368752 5368751 5368750 5368751 5368727 5368726 5368725 5368726 5368749 5368748 5368747 5368748 5368738 5368739 5368740 5368739 5368719 5368720 5368721 5368720 5368742 5368741 5368740 5368741 5368744 5368743 5368742 5368743 5368728 5368729 5368730 5368729 5368755 5368754 5368753 5368754 5368724 5368723 5368724 5368725 
5368709 5368709 5368709 0 10737418 10737418 999999 5368748 5368749 5368748 5368747 5368729 5368730 5368729 5368728 5368729 5368730 5368729 5368728 5368727 5368728 5368727 5368726 5368750 5368749 5368748 5368749 5368753 5368752 5368751 5368752 5368728 5368727 5368726 5368727 5368750 5368749 5368748 5368749 5368739 5368740 5368739 5368738 5368718 5368719 5368720 5368719 5368743 5368742 5368741 5368742 5368745 5368744 5368743 5368744 5368729 5368730 5368729 5368728 5368756 5368755 5368754 5368755 5368725 5368724 5368723 5368724 
5368709 5368709 5368709 5368749 5368748 5368747 5368748 999999 0 10737418 10737418 5368731 5368730 5368729 5368730 5368729 5368728 5368729 5368730 5368733 5368732 5368731 5368732 5368734 5368735 5368734 5368733 5368737 5368736 5368735 5368736 5368738 5368737 5368736 5368737 5368752 5368751 5368750 5368751 5368721 5368720 5368719 5368720 5368740 5368739 5368738 5368739 5368759 5368758 5368757 5368758 5368753 5368752 5368751 5368752 5368731 5368730 5368729 5368730 5368742 5368741 5368740 5368741 5368761 5368760 5368759 5368760 
5368709 5368709 5368709 5368748 5368747 5368748 5368749 10737418 999999 0 10737418 5368730 5368729 5368730 5368731 5368730 5368729 5368730 5368731 5368732 5368731 5368732 5368733 5368733 5368734 5368733 5368732 5368736 5368735 5368734 5368735 5368737 5368736 5368737 5368738 5368751 5368750 5368751 5368752 5368720 5368719 5368720 5368721 5368739 5368738 5368739 5368740 5368758 5368757 5368758 5368759 5368752 5368751 5368752 5368753 5368730 5368729 5368730 5368731 5368741 5368740 5368741 5368742 5368760 5368759 5368760 5368761 
5368709 5368709 5368709 5368749 5368748 5368749 5368750 10737418 10737418 999999 0 5368731 5368730 5368731 5368732 5368731 5368730 5368731 5368732 5368733 5368732 5368733 5368734 5368734 5368733 5368732 5368733 5368737 5368736 5368735 5368736 5368738 5368737 5368738 5368739 5368752 5368751 5368752 5368753 5368721 5368720 5368721 5368722 5368740 5368739 5368740 5368741 5368759 5368758 5368759 5368760 5368753 5368752 5368753 5368754 5368731 5368730 5368731 5368732 5368742 5368741 5368742 5368743 5368761 5368760 5368761 5368762 
5368709 5368709 5368709 5368750 5368749 5368748 5368749 0 10737418 10737418 999999 5368732 5368731 5368730 5368731 5368730 5368729 5368730 5368731 5368734 5368733 5368732 5368733 5368735 5368734 5368733 5368734 5368738 5368737 5368736 5368737 5368739 5368738 5368737 5368738 5368753 5368752 5368751 5368752 5368722 5368721 5368720 5368721 5368741 5368740 5368739 5368740 5368760 5368759 5368758 5368759 5368754 5368753 5368752 5368753 5368732 5368731 5368730 5368731 5368743 5368742 5368741 5368742 5368762 5368761 5368760 5368761 
5368709 5368709 5368709 5368730 5368729 5368728 5368729 5368731 5368732 5368731 5368730 999999 0 10737418 10737418 5368730 5368731 5368732 5368731 5368718 5368719 5368720 5368719 5368733 5368734 5368733 5368732 5368736 5368737 5368736 5368735 5368719 5368718 5368717 5368718 5368733 5368732 5368731 5368732 5368722 5368723 5368722 5368721 5368735 5368736 5368737 5368736 5368740 5368739 5368738 5368739 5368734 5368733 5368732 5368733 5368718 5368719 5368720 5368719 5368739 5368740 5368739 5368738 5368742 5368741 5368740 5368741 
5368709 5368709 5368709 5368729 5368728 5368729 5368730 5368730 5368731 5368732 5368731 10737418 999999 0 10737418 5368731 5368732 5368733 5368732 5368719 5368720 5368721 5368720 5368732 5368733 5368732 5368731 5368735 5368736 5368735 5368734 5368718 5368717 5368718 5368719 5368732 5368731 5368730 5368731 5368721 5368722 5368723 5368722 5368736 5368737 5368738 5368737 5368739 5368738 5368739 5368740 5368733 5368732 5368733 5368734 5368719 5368720 5368721 5368720 5368738 5368739 5368738 5368737 5368741 5368740 5368741 5368742 
5368709 5368709 5368709 5368730 5368729 5368730 5368731 5368729 5368730 5368731 5368730 10737418 10737418 999999 0 5368732 5368731 5368732 5368733 5368720 5368719 5368720 5368721 5368733 5368732 5368731 5368732 5368736 5368735 5368734 5368735 5368719 5368718 5368719 5368720 5368733 5368732 5368731 5368732 5368720 5368721 5368722 5368721 5368737 5368736 5368737 5368738 5368740 5368739 5368740 5368741 5368734 5368733 5368734 5368735 5368720 5368719 5368720 5368721 5368739 5368738 5368737 5368738 5368742 5368741 5368742 5368743 
5368709 5368709 5368709 5368731 5368730 5368729 5368730 5368730 5368731 5368730 5368729 0 10737418 10737418 999999 5368731 5368730 5368731 5368732 5368719 5368718 5368719 5368720 5368734 5368733 5368732 5368733 5368737 5368736 5368735 5368736 5368720 5368719 5368718 5368719 5368734 5368733 5368732 5368733 5368721 5368722 5368721 5368720 5368736 5368735 5368736 5368737 5368741 5368740 5368739 5368740 5368735 5368734 5368733 5368734 5368719 5368718 5368719 5368720 5368740 5368739 5368738 5368739 5368743 5368742 5368741 5368742 
5368709 5368709 5368709 5368730 5368729 5368728 5368729 5368731 5368732 5368731 5368730 5368732 5368733 5368732 5368731 999999 0 10737418 10737418 5368724 5368725 5368724 5368723 5368753 5368754 5368753 5368752 5368756 5368757 5368756 5368755 5368731 5368732 5368731 5368730 5368753 5368754 5368753 5368752 5368728 5368729 5368728 5368727 5368721 5368720 5368719 5368720 5368746 5368747 5368746 5368745 5368748 5368749 5368748 5368747 5368724 5368725 5368724 5368723 5368759 5368760 5368759 5368758 5368742 5368741 5368740 5368741 
5368709 5368709 5368709 5368729 5368728 5368729 5368730 5368730 5368731 5368730 5368729 5368731 5368732 5368731 5368730 10737418 999999 0 10737418 5368723 5368724 5368723 5368722 5368752 5368753 5368752 5368751 5368755 5368756 5368755 5368754 5368730 5368731 5368730 5368729 5368752 5368753 5368752 5368751 5368727 5368728 5368727 5368726 5368720 5368719 5368720 5368721 5368745 5368746 5368745 5368744 5368747 5368748 5368747 5368746 5368723 5368724 5368723 5368722 5368758 5368759 5368758 5368757 5368741 5368740 5368741 5368742 
5368709 5368709 5368709 5368730 5368729 5368730 5368731 5368729 5368730 5368729 5368728 5368732 5368731 5368730 5368731 10737418 10737418 999999 0 5368724 5368723 5368722 5368723 5368753 5368752 5368751 5368752 5368756 5368755 5368754 5368755 5368731 5368730 5368729 5368730 5368753 5368752 5368751 5368752 5368728 5368727 5368726 5368727 5368721 5368720 5368721 5368722 5368746 5368745 5368744 5368745 5368748 5368747 5368746 5368747 5368724 5368723 5368722 5368723 5368759 5368758 5368757 5368758 5368742 5368741 5368742 5368743 
5368709 5368709 5368709 5368731 5368730 5368729 5368730 5368730 5368731 5368730 5368729 5368733 5368732 5368731 5368732 0 10737418 10737418 999999 5368725 5368724 5368723 5368724 5368754 5368753 5368752 5368753 5368757 5368756 5368755 5368756 5368732 5368731 5368730 5368731 5368754 5368753 5368752 5368753 5368729 5368728 5368727 5368728 5368722 5368721 5368720 5368721 5368747 5368746 5368745 5368746 5368749 5368748 5368747 5368748 5368725 5368724 5368723 5368724 5368760 5368759 5368758 5368759 5368743 5368742 5368741 5368742 
5368709 5368709 5368709 5368728 5368727 5368726 5368727 5368733 5368734 5368733 5368732 5368720 5368721 5368720 5368719 5368722 5368723 5368724 5368723 999999 0 10737418 10737418 5368741 5368742 5368741 5368740 5368744 5368745 5368744 5368743 5368719 5368720 5368719 5368718 5368741 5368742 5368741 5368740 5368724 5368725 5368724 5368723 5368727 5368728 5368729 5368728 5368738 5368737 5368736 5368737 5368736 5368737 5368736 5368735 5368714 5368715 5368714 5368713 5368747 5368748 5368747 5368746 5368740 5368739 5368738 5368739 
5368709 5368709 5368709 5368727 5368726 5368727 5368728 5368732 5368733 5368734 5368733 5368719 5368720 5368719 5368718 5368723 5368724 5368725 5368724 10737418 999999 0 10737418 5368740 5368741 5368740 5368739 5368743 5368744 5368743 5368742 5368718 5368719 5368718 5368717 5368740 5368741 5368740 5368739 5368723 5368724 5368725 5368724 5368728 5368729 5368730 5368729 5368737 5368736 5368737 5368738 5368735 5368736 5368735 5368734 5368713 5368714 5368715 5368714 5368746 5368747 5368746 5368745 5368739 5368738 5368739 5368740 
5368709 5368709 5368709 5368728 5368727 5368728 5368729 5368731 5368732 5368733 5368732 5368720 5368719 5368718 5368719 5368724 5368723 5368724 5368725 10737418 10737418 999999 0 5368741 5368740 5368739 5368740 5368744 5368743 5368742 5368743 5368719 5368718 5368717 5368718 5368741 5368740 5368739 5368740 5368722 5368723 5368724 5368723 5368729 5368728 5368729 5368730 5368738 5368737 5368738 5368739 5368736 5368735 5368734 5368735 5368712 5368713 5368714 5368713 5368747 5368746 5368745 5368746 5368740 5368739 5368740 5368741 
5368709 5368709 5368709 5368729 5368728 5368727 5368728 5368732 5368733 5368732 5368731 5368721 5368720 5368719 5368720 5368723 5368722 5368723 5368724 0 10737418 10737418 999999 5368742 5368741 5368740 5368741 5368745 5368744 5368743 5368744 5368720 5368719 5368718 5368719 5368742 5368741 5368740 5368741 5368723 5368724 5368723 5368722 5368728 5368727 5368728 5368729 5368739 5368738 5368737 5368738 5368737 5368736 5368735 5368736 5368713 5368714 5368713 5368712 5368748 5368747 5368746 5368747 5368741 5368740 5368739 5368740 
5368709 5368709 5368709 5368747 5368748 5368749 5368748 5368732 5368733 5368734 5368733 5368731 5368732 5368733 5368732 5368751 5368752 5368753 5368752 5368739 5368740 5368741 5368740 999999 0 10737418 10737418 5368721 5368720 5368719 5368720 5368732 5368733 5368734 5368733 5368736 5368735 5368734 5368735 5368735 5368736 5368737 5368736 5368756 5368757 5368758 5368757 5368743 5368742 5368741 5368742 5368737 5368736 5368735 5368736 5368739 5368740 5368741 5368740 5368726 5368725 5368724 5368725 5368745 5368744 5368743 5368744 
5368709 5368709 5368709 5368748 5368749 5368750 5368749 5368733 5368734 5368735 5368734 5368732 5368733 5368734 5368733 5368752 5368753 5368754 5368753 5368740 5368741 5368742 5368741 10737418 999999 0 10737418 5368720 5368719 5368720 5368721 5368733 5368734 5368735 5368734 5368735 5368734 5368735 5368736 5368736 5368737 5368738 5368737 5368757 5368758 5368759 5368758 5368742 5368741 5368742 5368743 5368736 5368735 5368736 5368737 5368740 5368741 5368742 5368741 5368725 5368724 5368725 5368726 5368744 5368743 5368744 5368745 
5368709 5368709 5368709 5368749 5368748 5368749 5368750 5368734 5368733 5368734 5368735 5368733 5368732 5368733 5368734 5368753 5368752 5368753 5368754 5368741 5368740 5368741 5368742 10737418 10737418 999999 0 5368721 5368720 5368721 5368722 5368734 5368733 5368734 5368735 5368736 5368735 5368736 5368737 5368737 5368736 5368737 5368738 5368758 5368757 5368758 5368759 5368743 5368742 5368743 5368744 5368737 5368736 5368737 5368738 5368741 5368740 5368741 5368742 5368726 5368725 5368726 5368727 5368745 5368744 5368745 5368746 
5368709 5368709 5368709 5368748 5368747 5368748 5368749 5368733 5368732 5368733 5368734 5368732 5368731 5368732 5368733 5368752 5368751 5368752 5368753 5368740 5368739 5368740 5368741 0 10737418 10737418 999999 5368722 5368721 5368720 5368721 5368733 5368732 5368733 5368734 5368737 5368736 5368735 5368736 5368736 5368735 5368736 5368737 5368757 5368756 5368757 5368758 5368744 5368743 5368742 5368743 5368738 5368737 5368736 5368737 5368740 5368739 5368740 5368741 5368727 5368726 5368725 5368726 5368746 5368745 5368744 5368745 
5368709 5368709 5368709 5368750 5368751 5368752 5368751 5368735 5368736 5368737 5368736 5368734 5368735 5368736 5368735 5368754 5368755 5368756 5368755 5368742 5368743 5368744 5368743 5368721 5368722 5368721 5368720 999999 0 10737418 10737418 5368735 5368736 5368737 5368736 5368727 5368726 5368725 5368726 5368738 5368739 5368740 5368739 5368759 5368760 5368761 5368760 5368734 5368733 5368732 5368733 5368728 5368727 5368726 5368727 5368742 5368743 5368744 5368743 5368717 5368716 5368715 5368716 5368740 5368741 5368742 5368741 
5368709 5368709 5368709 5368751 5368752 5368753 5368752 5368736 5368737 5368738 5368737 5368735 5368736 5368737 5368736 5368755 5368756 5368757 5368756 5368743 5368744 5368745 5368744 5368720 5368721 5368722 5368721 10737418 999999 0 10737418 5368736 5368737 5368738 5368737 5368726 5368725 5368726 5368727 5368739 5368740 5368741 5368740 5368760 5368761 5368762 5368761 5368733 5368732 5368733 5368734 5368727 5368726 5368727 5368728 5368743 5368744 5368745 5368744 5368716 5368715 5368716 5368717 5368741 5368742 5368743 5368742 
5368709 5368709 5368709 5368752 5368751 5368752 5368753 5368735 5368736 5368737 5368736 5368736 5368735 5368736 5368737 5368756 5368755 5368756 5368757 5368744 5368743 5368744 5368745 5368719 5368720 5368721 5368720 10737418 10737418 999999 0 5368737 5368736 5368737 5368738 5368727 5368726 5368727 5368728 5368740 5368739 5368740 5368741 5368761 5368760 5368761 5368762 5368734 5368733 5368734 5368735 5368728 5368727 5368728 5368729 5368744 5368743 5368744 5368745 5368717 5368716 5368717 5368718 5368742 5368741 5368742 5368743 
5368709 5368709 5368709 5368751 5368750 5368751 5368752 5368734 5368735 5368736 5368735 5368735 5368734 5368735 5368736 5368755 5368754 5368755 5368756 5368743 5368742 5368743 5368744 5368720 5368721 5368720 5368719 0 10737418 10737418 999999 5368736 5368735 5368736 5368737 5368728 5368727 5368726 5368727 5368739 5368738 5368739 5368740 5368760 5368759 5368760 5368761 5368735 5368734 5368733 5368734 5368729 5368728 5368727 5368728 5368743 5368742 5368743 5368744 5368718 5368717 5368716 5368717 5368741 5368740 5368741 5368742 
5368709 5368709 5368709 5368725 5368726 5368727 5368726 5368738 5368739 5368738 5368737 5368719 5368720 5368719 5368718 5368729 5368730 5368731 5368730 5368717 5368718 5368719 5368718 5368734 5368735 5368734 5368733 5368737 5368738 5368737 5368736 999999 0 10737418 10737418 5368734 5368735 5368734 5368733 5368729 5368730 5368729 5368728 5368734 5368735 5368736 5368735 5368733 5368732 5368731 5368732 5368729 5368730 5368729 5368728 5368717 5368718 5368719 5368718 5368740 5368741 5368740 5368739 5368735 5368734 5368733 5368734 
5368709 5368709 5368709 5368726 5368727 5368728 5368727 5368737 5368738 5368739 5368738 5368718 5368719 5368720 5368719 5368730 5368731 5368732 5368731 5368718 5368719 5368720 5368719 5368733 5368734 5368733 5368732 5368736 5368737 5368736 5368735 10737418 999999 0 10737418 5368733 5368734 5368733 5368732 5368728 5368729 5368730 5368729 5368735 5368736 5368737 5368736 5368732 5368731 5368732 5368733 5368728 5368729 5368728 5368727 5368718 5368719 5368720 5368719 5368739 5368740 5368739 5368738 5368734 5368733 5368734 5368735 
5368709 5368709 5368709 5368727 5368726 5368727 5368728 5368736 5368737 5368738 5368737 5368717 5368718 5368719 5368718 5368731 5368730 5368731 5368732 5368719 5368718 5368719 5368720 5368734 5368733 5368732 5368733 5368737 5368736 5368735 5368736 10737418 10737418 999999 0 5368734 5368733 5368732 5368733 5368727 5368728 5368729 5368728 5368736 5368735 5368736 5368737 5368733 5368732 5368733 5368734 5368729 5368728 5368727 5368728 5368717 5368718 5368719 5368718 5368740 5368739 5368738 5368739 5368735 5368734 5368735 5368736 
5368709 5368709 5368709 5368726 5368725 5368726 5368727 5368737 5368738 5368737 5368736 5368718 5368719 5368718 5368717 5368730 5368729 5368730 5368731 5368718 5368717 5368718 5368719 5368735 5368734 5368733 5368734 5368738 5368737 5368736 5368737 0 10737418 10737418 999999 5368735 5368734 5368733 5368734 5368728 5368729 5368728 5368727 5368735 5368734 5368735 5368736 5368734 5368733 5368732 5368733 5368730 5368729 5368728 5368729 5368716 5368717 5368718 5368717 5368741 5368740 5368739 5368740 5368736 5368735 5368734 5368735 
5368709 5368709 5368709 5368747 5368748 5368749 5368748 5368752 5368753 5368752 5368751 5368731 5368732 5368733 5368732 5368751 5368752 5368753 5368752 5368739 5368740 5368741 5368740 5368736 5368737 5368736 5368735 5368727 5368728 5368727 5368726 5368732 5368733 5368734 5368733 999999 0 10737418 10737418 5368743 5368744 5368743 5368742 5368756 5368757 5368758 5368757 5368717 5368716 5368717 5368718 5368715 5368716 5368717 5368716 5368739 5368740 5368741 5368740 5368722 5368723 5368722 5368721 5368737 5368738 5368739 5368738 
5368709 5368709 5368709 5368748 5368749 5368750 5368749 5368751 5368752 5368753 5368752 5368732 5368733 5368734 5368733 5368752 5368753 5368754 5368753 5368740 5368741 5368742 5368741 5368735 5368736 5368737 5368736 5368726 5368727 5368728 5368727 5368733 5368734 5368735 5368734 10737418 999999 0 10737418 5368742 5368743 5368744 5368743 5368757 5368758 5368759 5368758 5368718 5368717 5368718 5368719 5368716 5368717 5368718 5368717 5368740 5368741 5368742 5368741 5368721 5368722 5368723 5368722 5368738 5368739 5368740 5368739 
5368709 5368709 5368709 5368749 5368748 5368749 5368750 5368750 5368751 5368752 5368751 5368731 5368732 5368733 5368732 5368753 5368752 5368753 5368754 5368741 5368740 5368741 5368742 5368734 5368735 5368736 5368735 5368725 5368726 5368727 5368726 5368734 5368733 5368734 5368735 10737418 10737418 999999 0 5368741 5368742 5368743 5368742 5368758 5368757 5368758 5368759 5368719 5368718 5368719 5368720 5368717 5368716 5368717 5368718 5368741 5368740 5368741 5368742 5368720 5368721 5368722 5368721 5368739 5368738 5368739 5368740 
5368709 5368709 5368709 5368748 5368747 5368748 5368749 5368751 5368752 5368751 5368750 5368730 5368731 5368732 5368731 5368752 5368751 5368752 5368753 5368740 5368739 5368740 5368741 5368735 5368736 5368735 5368734 5368726 5368727 5368726 5368725 5368733 5368732 5368733 5368734 0 10737418 10737418 999999 5368742 5368743 5368742 5368741 5368757 5368756 5368757 5368758 5368718 5368717 5368718 5368719 5368716 5368715 5368716 5368717 5368740 5368739 5368740 5368741 5368721 5368722 5368721 5368720 5368738 5368737 5368738 5368739 
5368709 5368709 5368709 5368740 5368739 5368738 5368739 5368721 5368722 5368721 5368720 5368722 5368721 5368720 5368721 5368726 5368727 5368728 5368727 5368724 5368723 5368722 5368723 5368737 5368738 5368737 5368736 5368740 5368741 5368740 5368739 5368729 5368728 5368727 5368728 5368743 5368742 5368741 5368742 999999 0 10737418 10737418 5368731 5368732 5368733 5368732 5368750 5368749 5368748 5368749 5368744 5368743 5368742 5368743 5368722 5368721 5368720 5368721 5368743 5368744 5368743 5368742 5368752 5368751 5368750 5368751 
5368709 5368709 5368709 5368739 5368738 5368739 5368740 5368720 5368721 5368722 5368721 5368721 5368720 5368721 5368722 5368727 5368728 5368729 5368728 5368723 5368722 5368723 5368724 5368736 5368737 5368736 5368735 5368739 5368740 5368739 5368738 5368728 5368727 5368728 5368729 5368742 5368741 5368742 5368743 10737418 999999 0 10737418 5368732 5368733 5368734 5368733 5368749 5368748 5368749 5368750 5368743 5368742 5368743 5368744 5368721 5368720 5368721 5368722 5368742 5368743 5368742 5368741 5368751 5368750 5368751 5368752 
5368709 5368709 5368709 5368740 5368739 5368740 5368741 5368719 5368720 5368721 5368720 5368722 5368721 5368722 5368723 5368728 5368727 5368728 5368729 5368724 5368723 5368724 5368725 5368737 5368736 5368735 5368736 5368740 5368739 5368738 5368739 5368729 5368728 5368729 5368730 5368743 5368742 5368743 5368744 10737418 10737418 999999 0 5368733 5368732 5368733 5368734 5368750 5368749 5368750 5368751 5368744 5368743 5368744 5368745 5368722 5368721 5368722 5368723 5368743 5368742 5368741 5368742 5368752 5368751 5368752 5368753 
5368709 5368709 5368709 5368741 5368740 5368739 5368740 5368720 5368721 5368720 5368719 5368723 5368722 5368721 5368722 5368727 5368726 5368727 5368728 5368725 5368724 5368723 5368724 5368738 5368737 5368736 5368737 5368741 5368740 5368739 5368740 5368730 5368729 5368728 5368729 5368744 5368743 5368742 5368743 0 10737418 10737418 999999 5368732 5368731 5368732 5368733 5368751 5368750 5368749 5368750 5368745 5368744 5368743 5368744 5368723 5368722 5368721 5368722 5368744 5368743 5368742 5368743 5368753 5368752 5368751 5368752 
5368709 5368709 5368709 5368721 5368720 5368719 5368720 5368740 5368741 5368740 5368739 5368737 5368738 5368737 5368736 5368721 5368722 5368721 5368720 5368729 5368730 5368729 5368728 5368758 5368759 5368758 5368757 5368761 5368762 5368761 5368760 5368736 5368737 5368736 5368735 5368758 5368759 5368758 5368757 5368733 5368734 5368733 5368732 999999 0 10737418 10737418 5368751 5368752 5368751 5368750 5368753 5368754 5368753 5368752 5368729 5368730 5368729 5368728 5368764 5368765 5368764 5368763 5368733 5368732 5368731 5368732 
5368709 5368709 5368709 5368720 5368719 5368718 5368719 5368739 5368740 5368741 5368740 5368736 5368737 5368736 5368735 5368720 5368721 5368722 5368721 5368728 5368729 5368728 5368727 5368757 5368758 5368757 5368756 5368760 5368761 5368760 5368759 5368735 5368736 5368735 5368734 5368757 5368758 5368757 5368756 5368732 5368733 5368732 5368731 10737418 999999 0 10737418 5368750 5368751 5368750 5368749 5368752 5368753 5368752 5368751 5368728 5368729 5368728 5368727 5368763 5368764 5368763 5368762 5368732 5368731 5368732 5368733 
5368709 5368709 5368709 5368721 5368720 5368719 5368720 5368738 5368739 5368740 5368739 5368737 5368736 5368735 5368736 5368719 5368720 5368721 5368720 5368729 5368728 5368727 5368728 5368758 5368757 5368756 5368757 5368761 5368760 5368759 5368760 5368736 5368735 5368734 5368735 5368758 5368757 5368756 5368757 5368733 5368732 5368731 5368732 10737418 10737418 999999 0 5368751 5368750 5368749 5368750 5368753 5368752 5368751 5368752 5368729 5368728 5368727 5368728 5368764 5368763 5368762 5368763 5368733 5368732 5368733 5368734 
5368709 5368709 5368709 5368722 5368721 5368720 5368721 5368739 5368740 5368739 5368738 5368738 5368737 5368736 5368737 5368720 5368721 5368720 5368719 5368730 5368729 5368728 5368729 5368759 5368758 5368757 5368758 5368762 5368761 5368760 5368761 5368737 5368736 5368735 5368736 5368759 5368758 5368757 5368758 5368734 5368733 5368732 5368733 0 10737418 10737418 999999 5368752 5368751 5368750 5368751 5368754 5368753 5368752 5368753 5368730 5368729 5368728 5368729 5368765 5368764 5368763 5368764 5368734 5368733 5368732 5368733 
5368709 5368709 5368709 5368740 5368741 5368742 5368741 5368759 5368760 5368759 5368758 5368740 5368741 5368740 5368739 5368744 5368745 5368746 5368745 5368738 5368739 5368738 5368737 5368743 5368744 5368743 5368742 5368734 5368735 5368734 5368733 5368733 5368734 5368733 5368732 5368719 5368720 5368719 5368718 5368750 5368751 5368750 5368749 5368749 5368750 5368751 5368750 999999 0 10737418 10737418 5368718 5368719 5368718 5368717 5368740 5368741 5368740 5368739 5368729 5368730 5368729 5368728 5368730 5368731 5368732 5368731 
5368709 5368709 5368709 5368741 5368742 5368743 5368742 5368758 5368759 5368760 5368759 5368739 5368740 5368741 5368740 5368745 5368746 5368747 5368746 5368737 5368738 5368739 5368738 5368742 5368743 5368744 5368743 5368733 5368734 5368735 5368734 5368732 5368733 5368734 5368733 5368718 5368719 5368718 5368717 5368749 5368750 5368751 5368750 5368750 5368751 5368752 5368751 10737418 999999 0 10737418 5368717 5368718 5368719 5368718 5368739 5368740 5368741 5368740 5368728 5368729 5368730 5368729 5368731 5368732 5368733 5368732 
5368709 5368709 5368709 5368742 5368741 5368742 5368743 5368757 5368758 5368759 5368758 5368738 5368739 5368740 5368739 5368746 5368745 5368746 5368747 5368736 5368737 5368738 5368737 5368741 5368742 5368743 5368742 5368732 5368733 5368734 5368733 5368731 5368732 5368733 5368732 5368717 5368718 5368717 5368716 5368748 5368749 5368750 5368749 5368751 5368750 5368751 5368752 10737418 10737418 999999 0 5368716 5368717 5368718 5368717 5368738 5368739 5368740 5368739 5368727 5368728 5368729 5368728 5368732 5368731 5368732 5368733 
5368709 5368709 5368709 5368741 5368740 5368741 5368742 5368758 5368759 5368758 5368757 5368739 5368740 5368739 5368738 5368745 5368744 5368745 5368746 5368737 5368738 5368737 5368736 5368742 5368743 5368742 5368741 5368733 5368734 5368733 5368732 5368732 5368733 5368732 5368731 5368718 5368719 5368718 5368717 5368749 5368750 5368749 5368748 5368750 5368749 5368750 5368751 0 10737418 10737418 999999 5368717 5368718 5368717 5368716 5368739 5368740 5368739 5368738 5368728 5368729 5368728 5368727 5368731 5368730 5368731 5368732 
5368709 5368709 5368709 5368742 5368743 5368744 5368743 5368753 5368754 5368753 5368752 5368734 5368735 5368734 5368733 5368746 5368747 5368748 5368747 5368734 5368735 5368736 5368735 5368737 5368738 5368737 5368736 5368728 5368729 5368728 5368727 5368727 5368728 5368729 5368728 5368717 5368718 5368717 5368716 5368744 5368745 5368744 5368743 5368751 5368752 5368753 5368752 5368718 5368717 5368716 5368717 999999 0 10737418 10737418 5368734 5368735 5368736 5368735 5368723 5368724 5368723 5368722 5368732 5368733 5368734 5368733 
5368709 5368709 5368709 5368743 5368744 5368745 5368744 5368752 5368753 5368754 5368753 5368733 5368734 5368735 5368734 5368747 5368748 5368749 5368748 5368735 5368736 5368737 5368736 5368736 5368737 5368738 5368737 5368727 5368728 5368729 5368728 5368728 5368729 5368730 5368729 5368716 5368717 5368716 5368715 5368743 5368744 5368745 5368744 5368752 5368753 5368754 5368753 5368717 5368716 5368717 5368718 10737418 999999 0 10737418 5368735 5368736 5368737 5368736 5368722 5368723 5368722 5368721 5368733 5368734 5368735 5368734 
5368709 5368709 5368709 5368744 5368743 5368744 5368745 5368751 5368752 5368753 5368752 5368732 5368733 5368734 5368733 5368748 5368747 5368748 5368749 5368736 5368735 5368736 5368737 5368735 5368736 5368737 5368736 5368726 5368727 5368728 5368727 5368729 5368728 5368729 5368730 5368717 5368716 5368715 5368716 5368742 5368743 5368744 5368743 5368753 5368752 5368753 5368754 5368718 5368717 5368718 5368719 10737418 10737418 999999 0 5368736 5368735 5368736 5368737 5368721 5368722 5368721 5368720 5368734 5368733 5368734 5368735 
5368709 5368709 5368709 5368743 5368742 5368743 5368744 5368752 5368753 5368752 5368751 5368733 5368734 5368733 5368732 5368747 5368746 5368747 5368748 5368735 5368734 5368735 5368736 5368736 5368737 5368736 5368735 5368727 5368728 5368727 5368726 5368728 5368727 5368728 5368729 5368718 5368717 5368716 5368717 5368743 5368744 5368743 5368742 5368752 5368751 5368752 5368753 5368719 5368718 5368717 5368718 0 10737418 10737418 999999 5368735 5368734 5368735 5368736 5368722 5368723 5368722 5368721 5368733 5368732 5368733 5368734 
5368709 5368709 5368709 5368730 5368729 5368728 5368729 5368731 5368732 5368731 5368730 5368720 5368721 5368720 5368719 5368722 5368723 5368724 5368723 5368714 5368713 5368712 5368713 5368741 5368742 5368741 5368740 5368744 5368745 5368744 5368743 5368719 5368718 5368717 5368718 5368741 5368742 5368741 5368740 5368722 5368723 5368722 5368721 5368727 5368728 5368729 5368728 5368740 5368739 5368738 5368739 5368736 5368737 5368736 5368735 999999 0 10737418 10737418 5368747 5368748 5368747 5368746 5368742 5368741 5368740 5368741 
5368709 5368709 5368709 5368729 5368728 5368729 5368730 5368730 5368731 5368732 5368731 5368719 5368720 5368719 5368718 5368723 5368724 5368725 5368724 5368713 5368712 5368713 5368714 5368740 5368741 5368740 5368739 5368743 5368744 5368743 5368742 5368718 5368717 5368716 5368717 5368740 5368741 5368740 5368739 5368721 5368722 5368723 5368722 5368728 5368729 5368730 5368729 5368739 5368738 5368739 5368740 5368735 5368736 5368735 5368734 10737418 999999 0 10737418 5368746 5368747 5368746 5368745 5368741 5368740 5368741 5368742 
5368709 5368709 5368709 5368730 5368729 5368730 5368731 5368729 5368730 5368731 5368730 5368720 5368719 5368718 5368719 5368724 5368723 5368724 5368725 5368714 5368713 5368714 5368715 5368741 5368740 5368739 5368740 5368744 5368743 5368742 5368743 5368719 5368718 5368717 5368718 5368741 5368740 5368739 5368740 5368720 5368721 5368722 5368721 5368729 5368728 5368729 5368730 5368740 5368739 5368740 5368741 5368736 5368735 5368734 5368735 10737418 10737418 999999 0 5368747 5368746 5368745 5368746 5368742 5368741 5368742 5368743 
5368709 5368709 5368709 5368731 5368730 5368729 5368730 5368730 5368731 5368730 5368729 5368721 5368720 5368719 5368720 5368723 5368722 5368723 5368724 5368715 5368714 5368713 5368714 5368742 5368741 5368740 5368741 5368745 5368744 5368743 5368744 5368720 5368719 5368718 5368719 5368742 5368741 5368740 5368741 5368721 5368722 5368721 5368720 5368728 5368727 5368728 5368729 5368741 5368740 5368739 5368740 5368737 5368736 5368735 5368736 0 10737418 10737418 999999 5368748 5368747 5368746 5368747 5368743 5368742 5368741 5368742 
5368709 5368709 5368709 5368753 5368754 5368755 5368754 5368742 5368743 5368742 5368741 5368737 5368738 5368739 5368738 5368757 5368758 5368759 5368758 5368745 5368746 5368747 5368746 5368726 5368727 5368726 5368725 5368717 5368718 5368717 5368716 5368738 5368739 5368740 5368739 5368722 5368721 5368720 5368721 5368741 5368742 5368743 5368742 5368762 5368763 5368764 5368763 5368729 5368728 5368727 5368728 5368721 5368720 5368721 5368722 5368745 5368746 5368747 5368746 999999 0 10737418 10737418 5368743 5368744 5368745 5368744 
5368709 5368709 5368709 5368754 5368755 5368756 5368755 5368741 5368742 5368743 5368742 5368738 5368739 5368740 5368739 5368758 5368759 5368760 5368759 5368746 5368747 5368748 5368747 5368725 5368726 5368727 5368726 5368716 5368717 5368718 5368717 5368739 5368740 5368741 5368740 5368721 5368720 5368721 5368722 5368742 5368743 5368744 5368743 5368763 5368764 5368765 5368764 5368728 5368727 5368728 5368729 5368722 5368721 5368722 5368723 5368746 5368747 5368748 5368747 10737418 999999 0 10737418 5368744 5368745 5368746 5368745 
5368709 5368709 5368709 5368755 5368754 5368755 5368756 5368740 5368741 5368742 5368741 5368739 5368738 5368739 5368740 5368759 5368758 5368759 5368760 5368747 5368746 5368747 5368748 5368724 5368725 5368726 5368725 5368715 5368716 5368717 5368716 5368740 5368739 5368740 5368741 5368722 5368721 5368722 5368723 5368743 5368742 5368743 5368744 5368764 5368763 5368764 5368765 5368729 5368728 5368729 5368730 5368723 5368722 5368723 5368724 5368747 5368746 5368747 5368748 10737418 10737418 999999 0 5368745 5368744 5368745 5368746 
5368709 5368709 5368709 5368754 5368753 5368754 5368755 5368741 5368742 5368741 5368740 5368738 5368737 5368738 5368739 5368758 5368757 5368758 5368759 5368746 5368745 5368746 5368747 5368725 5368726 5368725 5368724 5368716 5368717 5368716 5368715 5368739 5368738 5368739 5368740 5368723 5368722 5368721 5368722 5368742 5368741 5368742 5368743 5368763 5368762 5368763 5368764 5368730 5368729 5368728 5368729 5368722 5368721 5368722 5368723 5368746 5368745 5368746 5368747 0 10737418 10737418 999999 5368744 5368743 5368744 5368745 
5368709 5368709 5368709 5368724 5368725 5368724 5368723 5368761 5368762 5368761 5368760 5368742 5368743 5368742 5368741 5368742 5368743 5368742 5368741 5368740 5368741 5368740 5368739 5368745 5368746 5368745 5368744 5368742 5368743 5368742 5368741 5368735 5368736 5368735 5368734 5368739 5368740 5368739 5368738 5368752 5368753 5368752 5368751 5368733 5368734 5368733 5368732 5368732 5368733 5368732 5368731 5368734 5368735 5368734 5368733 5368742 5368743 5368742 5368741 5368745 5368746 5368745 5368744 999999 0 10737418 10737418 
5368709 5368709 5368709 5368723 5368724 5368725 5368724 5368760 5368761 5368762 5368761 5368741 5368742 5368743 5368742 5368741 5368742 5368743 5368742 5368739 5368740 5368741 5368740 5368744 5368745 5368746 5368745 5368741 5368742 5368741 5368740 5368734 5368735 5368736 5368735 5368738 5368739 5368738 5368737 5368751 5368752 5368753 5368752 5368732 5368733 5368734 5368733 5368731 5368732 5368731 5368730 5368733 5368734 5368733 5368732 5368741 5368742 5368743 5368742 5368744 5368745 5368744 5368743 10737418 999999 0 10737418 
5368709 5368709 5368709 5368722 5368723 5368724 5368723 5368759 5368760 5368761 5368760 5368740 5368741 5368742 5368741 5368740 5368741 5368742 5368741 5368738 5368739 5368740 5368739 5368743 5368744 5368745 5368744 5368742 5368741 5368740 5368741 5368733 5368734 5368735 5368734 5368739 5368738 5368737 5368738 5368750 5368751 5368752 5368751 5368731 5368732 5368733 5368732 5368732 5368731 5368730 5368731 5368734 5368733 5368732 5368733 5368740 5368741 5368742 5368741 5368745 5368744 5368743 5368744 10737418 10737418 999999 0 
5368709 5368709 5368709 5368723 5368724 5368723 5368722 5368760 5368761 5368760 5368759 5368741 5368742 5368741 5368740 5368741 5368742 5368741 5368740 5368739 5368740 5368739 5368738 5368744 5368745 5368744 5368743 5368743 5368742 5368741 5368742 5368734 5368735 5368734 5368733 5368740 5368739 5368738 5368739 5368751 5368752 5368751 5368750 5368732 5368733 5368732 5368731 5368733 5368732 5368731 5368732 5368735 5368734 5368733 5368734 5368741 5368742 5368741 5368740 5368746 5368745 5368744 5368745 0 10737418 10737418 999999 
EOF
