GLKH-1.1/TMP/mEgtspf.pid7377.tour
NAME : mEgtspf.pid7377.gtsp.102005619.tour
COMMENT : Length = 102005619
COMMENT : Found by LKH [Keld Helsgaun] Fri Apr 11 12:36:33 2025
TYPE : TOUR
DIMENSION : 67
TOUR_SECTION
1
2
37
38
39
36
48
49
50
51
55
52
53
54
63
60
61
62
28
29
30
31
27
24
25
26
3
66
67
64
65
4
5
6
7
44
45
46
47
19
16
17
18
58
59
56
57
21
22
23
20
35
32
33
34
12
13
14
15
43
40
41
42
8
9
10
11
-1
EOF
